50	519684

6787 8787
7885 9885
625 2625
9000 12000
2631 4631
990 3990
1778 3778
3194 5194
6271 8271
9483 11483
8161 10161
9952 11952
874 2874
5689 7689
6234 9234
4940 6940
6560 8560
1352 3352
438 3438
9526 11526
8971 10971
3075 5075
4005 6005
8515 10515
275 2275
4279 6279
7232 9232
397 2397
7133 9133
463 2463
8492 10492
532 2532
4219 6219
4320 7320
3734 5734
8449 10449
8663 10663
8641 10641
1958 3958
3327 5327
8962 10962
5894 7894
9794 11794
9728 11728
4308 7308
2371 4371
3839 5839
4175 6175
4799 6799
6922 8922
